
Gurobi 11.0.3 (mac64[x86]) logging started Wed Apr  9 18:19:39 2025

Set parameter LogFile to value "Results/Conservative_experiment/sanity_check_v34_none.log"
Set parameter TimeLimit to value 84600
Set parameter Method to value 2
Set parameter Crossover to value 0
Set parameter BarConvTol to value 1e-10
Gurobi Optimizer version 11.0.3 build v11.0.3rc0 (mac64[x86] - Darwin 23.4.0 23E214)

CPU model: Intel(R) Core(TM) i7-1060NG7 CPU @ 1.20GHz
Thread count: 4 physical cores, 8 logical processors, using up to 8 threads

Optimize a model with 1494624 rows, 1917920 columns and 7072112 nonzeros
Model fingerprint: 0x8da83b8e
Coefficient statistics:
  Matrix range     [2e-01, 1e+00]
  Objective range  [6e-05, 5e+00]
  Bounds range     [0e+00, 0e+00]
  RHS range        [1e-02, 3e+03]
Presolve removed 1165024 rows and 1237344 columns (presolve time = 5s) ...
Presolve removed 1209680 rows and 1390224 columns
Presolve time: 6.30s
Presolved: 284944 rows, 527792 columns, 1880752 nonzeros
Ordering time: 0.70s

Barrier statistics:
 AA' NZ     : 2.506e+05
 Factor NZ  : 5.334e+06 (roughly 80 MB of memory)
 Factor Ops : 3.271e+09 (less than 1 second per iteration)
 Threads    : 4

                  Objective                Residual
Iter       Primal          Dual         Primal    Dual     Compl     Time
   0   9.15325859e+06  1.79081345e+11  1.71e+04 6.37e+03  4.77e+07     8s
   1  -1.67682119e+07  1.09216680e+11  5.15e+03 7.24e+03  1.63e+07     8s
   2  -1.79657613e+07  1.18786734e+10  1.27e+03 9.33e+02  2.63e+06     8s
   3  -1.61965734e+07  2.11508996e+09  1.05e+02 3.74e+01  1.65e+05     8s
   4  -1.51130854e+07  6.71447648e+08  1.18e+01 3.76e+00  2.46e+04     9s
   5  -1.28711040e+07  9.73357321e+07  5.10e-01 1.26e-01  1.82e+03     9s
   6  -1.89523238e+06  5.83550365e+06  8.71e-03 5.11e-03  1.05e+02     9s
   7  -1.09219120e+05  4.02778611e+05  4.45e-04 1.11e-04  6.88e+00     9s
   8   5.55825767e+03  6.93057078e+04  1.37e-05 1.55e-12  8.45e-01    10s
   9   1.54231971e+04  3.04146548e+04  5.02e-06 2.91e-13  1.93e-01    10s
  10   1.83452642e+04  2.51896699e+04  2.10e-06 1.29e-13  8.71e-02    10s
  11   1.97800324e+04  2.28441439e+04  8.75e-07 5.43e-14  3.88e-02    10s
  12   2.05872008e+04  2.20292009e+04  3.45e-07 2.85e-14  1.82e-02    11s
  13   2.10171998e+04  2.15567038e+04  9.18e-08 1.12e-14  6.81e-03    11s
  14   2.11888089e+04  2.13634131e+04  1.45e-08 4.44e-15  2.20e-03    11s
  15   2.12338307e+04  2.12963197e+04  2.76e-09 3.55e-15  7.88e-04    11s
  16   2.12459055e+04  2.12616236e+04  7.63e-10 1.10e-15  1.98e-04    12s
  17   2.12509891e+04  2.12558527e+04  1.81e-10 3.55e-15  6.13e-05    12s
  18   2.12524794e+04  2.12541086e+04  1.02e-10 3.55e-15  2.05e-05    12s
  19   2.12527160e+04  2.12533104e+04  1.63e-10 1.78e-15  7.49e-06    12s
  20   2.12527920e+04  2.12530621e+04  2.16e-10 3.55e-15  3.40e-06    12s
  21   2.12528450e+04  2.12529771e+04  7.32e-11 3.55e-15  1.66e-06    13s
  22   2.12528739e+04  2.12528961e+04  2.52e-10 7.11e-15  2.80e-07    13s
  23   2.12528810e+04  2.12528862e+04  7.44e-10 3.55e-15  6.55e-08    13s
  24   2.12528833e+04  2.12528843e+04  3.01e-09 7.64e-16  1.27e-08    14s
  25   2.12528834e+04  2.12528841e+04  1.87e-07 3.64e-12  7.63e-09    14s
  26   2.12528838e+04  2.12528838e+04  2.79e-08 1.14e-13  3.58e-10    14s
  27   2.12528838e+04  2.12528838e+04  6.24e-10 1.14e-13  4.58e-13    15s

Barrier solved model in 27 iterations and 14.55 seconds (7.57 work units)
Optimal objective 2.12528838e+04

